c Created with the Wolfram Language : www.wolfram.com
c 
p edge 90 584
e 4 5
e 6 8
e 8 9
e 7 11
e 2 12
e 4 12
e 10 13
e 2 14
e 7 15
e 10 15
e 2 16
e 11 16
e 12 17
e 5 19
e 18 19
e 3 20
e 4 20
e 10 20
e 1 21
e 3 21
e 5 21
e 7 21
e 12 21
e 10 23
e 11 24
e 12 24
e 1 25
e 19 25
e 20 25
e 23 25
e 1 26
e 9 26
e 21 26
e 1 27
e 1 28
e 6 28
e 13 28
e 15 28
e 16 28
e 20 28
e 5 29
e 11 29
e 4 30
e 6 30
e 8 30
e 19 30
e 22 30
e 23 30
e 27 30
e 1 31
e 5 31
e 8 31
e 11 31
e 4 32
e 13 32
e 23 32
e 2 33
e 7 33
e 12 33
e 14 33
e 23 33
e 10 34
e 26 34
e 27 34
e 30 34
e 10 35
e 16 35
e 20 35
e 24 35
e 32 35
e 33 35
e 1 36
e 3 36
e 6 36
e 19 36
e 30 36
e 1 37
e 2 37
e 29 37
e 30 37
e 31 37
e 36 37
e 16 38
e 22 38
e 24 38
e 26 38
e 27 38
e 33 38
e 34 38
e 16 39
e 24 39
e 25 39
e 33 39
e 35 39
e 3 40
e 7 40
e 9 40
e 15 40
e 23 40
e 32 40
e 35 40
e 37 40
e 8 41
e 11 41
e 12 41
e 14 41
e 15 41
e 31 41
e 32 41
e 39 41
e 3 42
e 9 42
e 10 42
e 14 42
e 16 42
e 36 42
e 37 42
e 3 43
e 5 43
e 10 43
e 11 43
e 12 43
e 16 43
e 22 43
e 24 43
e 28 43
e 34 43
e 36 43
e 39 43
e 13 44
e 18 44
e 27 44
e 28 44
e 31 44
e 43 44
e 1 45
e 6 45
e 7 45
e 10 45
e 13 45
e 24 45
e 37 45
e 40 45
e 42 45
e 7 46
e 24 46
e 33 46
e 40 46
e 43 46
e 10 47
e 15 47
e 23 47
e 39 47
e 42 47
e 43 47
e 2 48
e 18 48
e 19 48
e 20 48
e 44 48
e 47 48
e 3 49
e 5 49
e 11 49
e 13 49
e 21 49
e 24 49
e 26 49
e 27 49
e 34 49
e 7 50
e 9 50
e 21 50
e 23 50
e 34 50
e 38 50
e 44 50
e 48 50
e 8 51
e 11 51
e 13 51
e 23 51
e 27 51
e 39 51
e 43 51
e 49 51
e 6 52
e 9 52
e 13 52
e 21 52
e 23 52
e 26 52
e 48 52
e 2 53
e 10 53
e 11 53
e 13 53
e 19 53
e 27 53
e 28 53
e 33 53
e 46 53
e 17 54
e 19 54
e 20 54
e 23 54
e 29 54
e 47 54
e 48 54
e 8 55
e 14 55
e 15 55
e 16 55
e 37 55
e 48 55
e 51 55
e 1 56
e 8 56
e 9 56
e 10 56
e 13 56
e 15 56
e 18 56
e 43 56
e 54 56
e 5 57
e 12 57
e 17 57
e 23 57
e 26 57
e 30 57
e 42 57
e 48 57
e 53 57
e 54 57
e 1 58
e 3 58
e 7 58
e 10 58
e 17 58
e 22 58
e 23 58
e 31 58
e 34 58
e 39 58
e 44 58
e 4 59
e 9 59
e 12 59
e 13 59
e 35 59
e 43 59
e 46 59
e 6 60
e 9 60
e 13 60
e 29 60
e 30 60
e 37 60
e 39 60
e 50 60
e 55 60
e 2 61
e 3 61
e 6 61
e 8 61
e 10 61
e 11 61
e 12 61
e 23 61
e 34 61
e 40 61
e 43 61
e 53 61
e 9 62
e 19 62
e 26 62
e 41 62
e 46 62
e 48 62
e 53 62
e 56 62
e 57 62
e 4 63
e 13 63
e 20 63
e 35 63
e 38 63
e 41 63
e 43 63
e 45 63
e 50 63
e 8 64
e 11 64
e 18 64
e 25 64
e 28 64
e 34 64
e 42 64
e 43 64
e 44 64
e 55 64
e 62 64
e 1 65
e 6 65
e 7 65
e 13 65
e 18 65
e 37 65
e 46 65
e 50 65
e 62 65
e 12 66
e 19 66
e 22 66
e 24 66
e 28 66
e 31 66
e 32 66
e 38 66
e 40 66
e 44 66
e 47 66
e 11 67
e 15 67
e 17 67
e 34 67
e 50 67
e 52 67
e 55 67
e 57 67
e 63 67
e 64 67
e 7 68
e 27 68
e 39 68
e 49 68
e 5 69
e 8 69
e 9 69
e 27 69
e 34 69
e 36 69
e 21 70
e 25 70
e 35 70
e 38 70
e 40 70
e 55 70
e 63 70
e 69 70
e 3 71
e 29 71
e 30 71
e 45 71
e 69 71
e 70 71
e 10 72
e 11 72
e 20 72
e 22 72
e 33 72
e 37 72
e 43 72
e 49 72
e 59 72
e 61 72
e 62 72
e 68 72
e 5 73
e 17 73
e 19 73
e 24 73
e 30 73
e 56 73
e 61 73
e 64 73
e 65 73
e 3 74
e 6 74
e 7 74
e 8 74
e 17 74
e 24 74
e 28 74
e 32 74
e 54 74
e 56 74
e 63 74
e 4 75
e 6 75
e 15 75
e 17 75
e 18 75
e 19 75
e 26 75
e 57 75
e 3 76
e 7 76
e 21 76
e 29 76
e 33 76
e 35 76
e 39 76
e 47 76
e 49 76
e 60 76
e 74 76
e 12 77
e 15 77
e 24 77
e 26 77
e 29 77
e 31 77
e 34 77
e 44 77
e 54 77
e 55 77
e 61 77
e 3 78
e 4 78
e 5 78
e 15 78
e 16 78
e 23 78
e 26 78
e 39 78
e 41 78
e 63 78
e 64 78
e 68 78
e 11 79
e 13 79
e 34 79
e 47 79
e 64 79
e 67 79
e 71 79
e 1 80
e 7 80
e 10 80
e 15 80
e 21 80
e 23 80
e 29 80
e 31 80
e 34 80
e 37 80
e 41 80
e 43 80
e 58 80
e 72 80
e 1 81
e 2 81
e 19 81
e 24 81
e 37 81
e 39 81
e 52 81
e 53 81
e 59 81
e 66 81
e 74 81
e 79 81
e 3 82
e 4 82
e 17 82
e 18 82
e 33 82
e 39 82
e 50 82
e 51 82
e 58 82
e 66 82
e 74 82
e 76 82
e 16 83
e 22 83
e 32 83
e 49 83
e 50 83
e 51 83
e 75 83
e 76 83
e 80 83
e 81 83
e 1 84
e 2 84
e 6 84
e 14 84
e 28 84
e 50 84
e 57 84
e 67 84
e 68 84
e 69 84
e 80 84
e 7 85
e 8 85
e 12 85
e 13 85
e 21 85
e 30 85
e 31 85
e 34 85
e 40 85
e 41 85
e 44 85
e 45 85
e 49 85
e 53 85
e 59 85
e 60 85
e 63 85
e 73 85
e 77 85
e 83 85
e 84 85
e 5 86
e 8 86
e 11 86
e 18 86
e 43 86
e 45 86
e 49 86
e 70 86
e 79 86
e 80 86
e 84 86
e 26 87
e 28 87
e 34 87
e 47 87
e 65 87
e 66 87
e 77 87
e 78 87
e 5 88
e 8 88
e 19 88
e 24 88
e 27 88
e 31 88
e 42 88
e 44 88
e 49 88
e 63 88
e 67 88
e 70 88
e 71 88
e 73 88
e 1 89
e 6 89
e 7 89
e 17 89
e 20 89
e 24 89
e 34 89
e 40 89
e 50 89
e 62 89
e 63 89
e 66 89
e 69 89
e 88 89
e 2 90
e 3 90
e 8 90
e 10 90
e 13 90
e 31 90
e 34 90
e 35 90
e 42 90
e 51 90
e 57 90
e 60 90
e 65 90
e 67 90
e 81 90
e 82 90
e 87 90
e 88 90
e 89 90
